n = 50;
C = 247;
w = [110,91,332,398,217,200,463,365,262,259,219,188,207,235,47,360,98,133,147,117,139,253,176,316,179,235,284,108,372,277,467,473,422,76,371,52,440,259,229,137,305,25,390,36,447,201,487,309,48,405];
p = [127,68,379,432,192,233,485,354,235,253,265,169,174,232,13,373,128,134,171,104,144,260,163,284,129,251,262,149,358,235,461,499,451,47,379,82,399,303,194,161,294,57,366,53,471,192,474,297,61,416];
